DIMENSION : 16
Capacity : 30
Vehicles : 8
Vehicle_Capacity_Section 
1 4 34
2 7 40
3 8 44
4 9 37
5 10 29
6 11 56
7 12 57
8 13 52
NODE_COORD_SECTION 
1 12.9775 80.21943
2 12.96745 80.2176
3 12.99288 80.2155
4 12.9849 80.21945
5 12.97934 80.20944
6 12.97927 80.21899
7 12.97841 80.21957
8 12.97708 80.22123
9 12.9773 80.22239
10 12.9805 80.22365
11 12.98097 80.22332
12 12.98137 80.22521
13 12.9839450000069 80.2226199999746
14 12.98129 80.22533
15 12.979379653930664 80.21846771240234
16 12.9754 80.22395
DEMAND_SECTION 
1 0
2 14
3 10
4 8
5 7
6 12
7 14
8 23
9 14
10 19
11 7
12 13
13 22
14 23
15 23
16 22
SHIPMENT_ID_SECTION 
1 66
2 11
3 12
4 13
5 14
6 15
7 16
8 17
9 18
10 20
11 21
12 22
13 23
14 24
15 25
16 26
